computational_data/solutions/ER_n30_p035_s3.sol
Optimal - objective value 7.00000000
      8 r_8                         1                       1
     10 r_10                        1                       1
     28 r_28                        1                       1
     30 b_0                         1                       1
     35 b_5                         1                       1
     43 b_13                        1                       1
     44 b_14                        1                       1
